% Auto-generated by scripts/generate_dzn.py
% problem_type   = regex
% instance       = regex_51
% source_json    = instances_json/2_high_blowup/regex_51.json
% blowup         = 13.73913043478261
% representation = DFA

mode = 0;

var_count = 14;
n_constraints = 2;
Q = 305;
S = 2;
q0 = [1, 1];
F = [{189, 190, 191, 192, 193, 194, 195, 196, 197, 198, 199, 200, 201, 202, 203, 204, 205, 206, 207, 208, 209, 210, 211, 212, 213, 214, 215, 216, 217, 218, 219, 220, 221, 222, 223, 224, 225, 226, 227, 228, 229, 230, 231, 232, 233, 234, 235, 236, 237, 238, 239, 240, 241, 242, 243, 244, 245, 246, 247, 248, 249, 250, 251, 252, 253, 254, 255, 256, 257, 258, 259, 260, 261, 262, 263, 264, 265, 266, 267, 268, 269, 270, 271, 272, 273, 274, 275, 276, 277, 278, 279, 280, 281, 282, 283, 284, 285, 286, 287, 288, 289, 290, 291, 292, 293, 294, 295, 296, 297, 298, 299, 300, 301, 302, 303, 304, 305}, {10}];
weights = [1, 8, 7, 1, 2, 5, 7, 7, 5, 6, 3, 2, 6, 9];
d_dfa = array3d(1..2, 1..305, 1..2, [
  % k = 1
    1, 2,
    1, 3,
    1, 4,
    5, 6,
    7, 8,
    9, 10,
    11, 12,
    11, 13,
    14, 15,
    16, 17,
    18, 19,
    18, 20,
    18, 21,
    22, 23,
    22, 24,
    25, 26,
    27, 28,
    29, 30,
    29, 31,
    29, 32,
    33, 34,
    35, 36,
    35, 37,
    35, 38,
    39, 40,
    39, 41,
    42, 43,
    44, 45,
    46, 47,
    46, 48,
    46, 49,
    50, 51,
    52, 53,
    54, 55,
    56, 57,
    56, 58,
    56, 59,
    60, 61,
    62, 63,
    62, 64,
    62, 65,
    66, 67,
    66, 68,
    69, 70,
    71, 72,
    73, 74,
    73, 75,
    73, 76,
    77, 78,
    79, 80,
    81, 82,
    83, 84,
    83, 85,
    86, 87,
    88, 89,
    90, 91,
    90, 92,
    90, 93,
    94, 95,
    96, 97,
    98, 99,
    100, 101,
    100, 102,
    100, 103,
    104, 105,
    106, 107,
    106, 108,
    106, 109,
    110, 111,
    110, 112,
    113, 114,
    115, 116,
    117, 118,
    117, 119,
    117, 120,
    121, 122,
    123, 124,
    125, 126,
    127, 128,
    127, 129,
    130, 131,
    132, 133,
    134, 135,
    134, 136,
    134, 137,
    138, 139,
    138, 140,
    141, 142,
    143, 144,
    145, 146,
    145, 147,
    145, 148,
    149, 150,
    151, 152,
    153, 154,
    155, 156,
    155, 157,
    158, 159,
    160, 161,
    162, 163,
    162, 164,
    162, 165,
    166, 167,
    168, 169,
    170, 171,
    172, 173,
    172, 174,
    172, 175,
    176, 177,
    178, 179,
    178, 180,
    178, 181,
    182, 183,
    182, 184,
    185, 186,
    187, 188,
    189, 190,
    189, 191,
    189, 192,
    193, 194,
    195, 196,
    197, 198,
    199, 200,
    199, 201,
    202, 203,
    204, 205,
    206, 207,
    206, 208,
    206, 209,
    210, 211,
    210, 212,
    213, 214,
    215, 216,
    217, 218,
    217, 219,
    217, 220,
    221, 222,
    223, 224,
    223, 225,
    223, 226,
    227, 228,
    227, 229,
    230, 231,
    232, 233,
    234, 235,
    234, 236,
    234, 237,
    238, 239,
    240, 241,
    242, 243,
    244, 245,
    244, 246,
    247, 248,
    249, 250,
    251, 252,
    251, 253,
    251, 254,
    255, 256,
    255, 257,
    258, 259,
    260, 261,
    262, 263,
    262, 264,
    262, 265,
    266, 267,
    268, 269,
    270, 271,
    272, 273,
    272, 274,
    275, 276,
    277, 278,
    279, 280,
    279, 281,
    279, 282,
    283, 284,
    285, 286,
    287, 288,
    289, 290,
    289, 291,
    289, 292,
    293, 294,
    295, 296,
    295, 297,
    295, 298,
    299, 300,
    299, 301,
    302, 303,
    304, 305,
    1, 2,
    1, 3,
    1, 4,
    5, 6,
    7, 8,
    9, 10,
    11, 12,
    11, 13,
    14, 15,
    16, 17,
    18, 19,
    18, 20,
    18, 21,
    22, 23,
    22, 24,
    25, 26,
    27, 28,
    29, 30,
    29, 31,
    29, 32,
    33, 34,
    35, 36,
    35, 37,
    35, 38,
    39, 40,
    39, 41,
    42, 43,
    44, 45,
    46, 47,
    46, 48,
    46, 49,
    50, 51,
    52, 53,
    54, 55,
    56, 57,
    56, 58,
    56, 59,
    60, 61,
    62, 63,
    62, 64,
    62, 65,
    66, 67,
    66, 68,
    69, 70,
    71, 72,
    189, 190,
    189, 191,
    189, 192,
    193, 194,
    195, 196,
    197, 198,
    199, 200,
    199, 201,
    202, 203,
    204, 205,
    206, 207,
    206, 208,
    206, 209,
    210, 211,
    210, 212,
    213, 214,
    215, 216,
    217, 218,
    217, 219,
    217, 220,
    221, 222,
    223, 224,
    223, 225,
    223, 226,
    227, 228,
    227, 229,
    230, 231,
    232, 233,
    234, 235,
    234, 236,
    234, 237,
    238, 239,
    240, 241,
    242, 243,
    244, 245,
    244, 246,
    247, 248,
    249, 250,
    251, 252,
    251, 253,
    251, 254,
    255, 256,
    255, 257,
    258, 259,
    260, 261,
    262, 263,
    262, 264,
    262, 265,
    266, 267,
    268, 269,
    270, 271,
    272, 273,
    272, 274,
    275, 276,
    277, 278,
    279, 280,
    279, 281,
    279, 282,
    283, 284,
    285, 286,
    287, 288,
    289, 290,
    289, 291,
    289, 292,
    293, 294,
    295, 296,
    295, 297,
    295, 298,
    299, 300,
    299, 301,
    302, 303,
    304, 305,

  % k = 2
    2, 1,
    3, 2,
    4, 3,
    5, 4,
    6, 5,
    7, 6,
    8, 7,
    9, 8,
    10, 9,
    11, 10,
    11, 11,
    0, 0,
    0, 0,
    0, 0,
    0, 0,
    0, 0,
    0, 0,
    0, 0,
    0, 0,
    0, 0,
    0, 0,
    0, 0,
    0, 0,
    0, 0,
    0, 0,
    0, 0,
    0, 0,
    0, 0,
    0, 0,
    0, 0,
    0, 0,
    0, 0,
    0, 0,
    0, 0,
    0, 0,
    0, 0,
    0, 0,
    0, 0,
    0, 0,
    0, 0,
    0, 0,
    0, 0,
    0, 0,
    0, 0,
    0, 0,
    0, 0,
    0, 0,
    0, 0,
    0, 0,
    0, 0,
    0, 0,
    0, 0,
    0, 0,
    0, 0,
    0, 0,
    0, 0,
    0, 0,
    0, 0,
    0, 0,
    0, 0,
    0, 0,
    0, 0,
    0, 0,
    0, 0,
    0, 0,
    0, 0,
    0, 0,
    0, 0,
    0, 0,
    0, 0,
    0, 0,
    0, 0,
    0, 0,
    0, 0,
    0, 0,
    0, 0,
    0, 0,
    0, 0,
    0, 0,
    0, 0,
    0, 0,
    0, 0,
    0, 0,
    0, 0,
    0, 0,
    0, 0,
    0, 0,
    0, 0,
    0, 0,
    0, 0,
    0, 0,
    0, 0,
    0, 0,
    0, 0,
    0, 0,
    0, 0,
    0, 0,
    0, 0,
    0, 0,
    0, 0,
    0, 0,
    0, 0,
    0, 0,
    0, 0,
    0, 0,
    0, 0,
    0, 0,
    0, 0,
    0, 0,
    0, 0,
    0, 0,
    0, 0,
    0, 0,
    0, 0,
    0, 0,
    0, 0,
    0, 0,
    0, 0,
    0, 0,
    0, 0,
    0, 0,
    0, 0,
    0, 0,
    0, 0,
    0, 0,
    0, 0,
    0, 0,
    0, 0,
    0, 0,
    0, 0,
    0, 0,
    0, 0,
    0, 0,
    0, 0,
    0, 0,
    0, 0,
    0, 0,
    0, 0,
    0, 0,
    0, 0,
    0, 0,
    0, 0,
    0, 0,
    0, 0,
    0, 0,
    0, 0,
    0, 0,
    0, 0,
    0, 0,
    0, 0,
    0, 0,
    0, 0,
    0, 0,
    0, 0,
    0, 0,
    0, 0,
    0, 0,
    0, 0,
    0, 0,
    0, 0,
    0, 0,
    0, 0,
    0, 0,
    0, 0,
    0, 0,
    0, 0,
    0, 0,
    0, 0,
    0, 0,
    0, 0,
    0, 0,
    0, 0,
    0, 0,
    0, 0,
    0, 0,
    0, 0,
    0, 0,
    0, 0,
    0, 0,
    0, 0,
    0, 0,
    0, 0,
    0, 0,
    0, 0,
    0, 0,
    0, 0,
    0, 0,
    0, 0,
    0, 0,
    0, 0,
    0, 0,
    0, 0,
    0, 0,
    0, 0,
    0, 0,
    0, 0,
    0, 0,
    0, 0,
    0, 0,
    0, 0,
    0, 0,
    0, 0,
    0, 0,
    0, 0,
    0, 0,
    0, 0,
    0, 0,
    0, 0,
    0, 0,
    0, 0,
    0, 0,
    0, 0,
    0, 0,
    0, 0,
    0, 0,
    0, 0,
    0, 0,
    0, 0,
    0, 0,
    0, 0,
    0, 0,
    0, 0,
    0, 0,
    0, 0,
    0, 0,
    0, 0,
    0, 0,
    0, 0,
    0, 0,
    0, 0,
    0, 0,
    0, 0,
    0, 0,
    0, 0,
    0, 0,
    0, 0,
    0, 0,
    0, 0,
    0, 0,
    0, 0,
    0, 0,
    0, 0,
    0, 0,
    0, 0,
    0, 0,
    0, 0,
    0, 0,
    0, 0,
    0, 0,
    0, 0,
    0, 0,
    0, 0,
    0, 0,
    0, 0,
    0, 0,
    0, 0,
    0, 0,
    0, 0,
    0, 0,
    0, 0,
    0, 0,
    0, 0,
    0, 0,
    0, 0,
    0, 0,
    0, 0,
    0, 0,
    0, 0,
    0, 0,
    0, 0,
    0, 0,
    0, 0,
    0, 0,
    0, 0,
    0, 0,
    0, 0,
    0, 0,
    0, 0,
    0, 0,
    0, 0,
    0, 0,
    0, 0,
    0, 0,
    0, 0,
    0, 0,
    0, 0,
    0, 0,
    0, 0,
    0, 0,
    0, 0,
    0, 0,
    0, 0,
    0, 0,
    0, 0,
    0, 0,
    0, 0,
    0, 0,
    0, 0,
    0, 0,
    0, 0,
    0, 0,
    0, 0,
    0, 0,
    0, 0,
    0, 0
]);
d_nfa = array3d(1..2, 1..305, 1..2, [
  % k = 1
    {}, {},
    {}, {},
    {}, {},
    {}, {},
    {}, {},
    {}, {},
    {}, {},
    {}, {},
    {}, {},
    {}, {},
    {}, {},
    {}, {},
    {}, {},
    {}, {},
    {}, {},
    {}, {},
    {}, {},
    {}, {},
    {}, {},
    {}, {},
    {}, {},
    {}, {},
    {}, {},
    {}, {},
    {}, {},
    {}, {},
    {}, {},
    {}, {},
    {}, {},
    {}, {},
    {}, {},
    {}, {},
    {}, {},
    {}, {},
    {}, {},
    {}, {},
    {}, {},
    {}, {},
    {}, {},
    {}, {},
    {}, {},
    {}, {},
    {}, {},
    {}, {},
    {}, {},
    {}, {},
    {}, {},
    {}, {},
    {}, {},
    {}, {},
    {}, {},
    {}, {},
    {}, {},
    {}, {},
    {}, {},
    {}, {},
    {}, {},
    {}, {},
    {}, {},
    {}, {},
    {}, {},
    {}, {},
    {}, {},
    {}, {},
    {}, {},
    {}, {},
    {}, {},
    {}, {},
    {}, {},
    {}, {},
    {}, {},
    {}, {},
    {}, {},
    {}, {},
    {}, {},
    {}, {},
    {}, {},
    {}, {},
    {}, {},
    {}, {},
    {}, {},
    {}, {},
    {}, {},
    {}, {},
    {}, {},
    {}, {},
    {}, {},
    {}, {},
    {}, {},
    {}, {},
    {}, {},
    {}, {},
    {}, {},
    {}, {},
    {}, {},
    {}, {},
    {}, {},
    {}, {},
    {}, {},
    {}, {},
    {}, {},
    {}, {},
    {}, {},
    {}, {},
    {}, {},
    {}, {},
    {}, {},
    {}, {},
    {}, {},
    {}, {},
    {}, {},
    {}, {},
    {}, {},
    {}, {},
    {}, {},
    {}, {},
    {}, {},
    {}, {},
    {}, {},
    {}, {},
    {}, {},
    {}, {},
    {}, {},
    {}, {},
    {}, {},
    {}, {},
    {}, {},
    {}, {},
    {}, {},
    {}, {},
    {}, {},
    {}, {},
    {}, {},
    {}, {},
    {}, {},
    {}, {},
    {}, {},
    {}, {},
    {}, {},
    {}, {},
    {}, {},
    {}, {},
    {}, {},
    {}, {},
    {}, {},
    {}, {},
    {}, {},
    {}, {},
    {}, {},
    {}, {},
    {}, {},
    {}, {},
    {}, {},
    {}, {},
    {}, {},
    {}, {},
    {}, {},
    {}, {},
    {}, {},
    {}, {},
    {}, {},
    {}, {},
    {}, {},
    {}, {},
    {}, {},
    {}, {},
    {}, {},
    {}, {},
    {}, {},
    {}, {},
    {}, {},
    {}, {},
    {}, {},
    {}, {},
    {}, {},
    {}, {},
    {}, {},
    {}, {},
    {}, {},
    {}, {},
    {}, {},
    {}, {},
    {}, {},
    {}, {},
    {}, {},
    {}, {},
    {}, {},
    {}, {},
    {}, {},
    {}, {},
    {}, {},
    {}, {},
    {}, {},
    {}, {},
    {}, {},
    {}, {},
    {}, {},
    {}, {},
    {}, {},
    {}, {},
    {}, {},
    {}, {},
    {}, {},
    {}, {},
    {}, {},
    {}, {},
    {}, {},
    {}, {},
    {}, {},
    {}, {},
    {}, {},
    {}, {},
    {}, {},
    {}, {},
    {}, {},
    {}, {},
    {}, {},
    {}, {},
    {}, {},
    {}, {},
    {}, {},
    {}, {},
    {}, {},
    {}, {},
    {}, {},
    {}, {},
    {}, {},
    {}, {},
    {}, {},
    {}, {},
    {}, {},
    {}, {},
    {}, {},
    {}, {},
    {}, {},
    {}, {},
    {}, {},
    {}, {},
    {}, {},
    {}, {},
    {}, {},
    {}, {},
    {}, {},
    {}, {},
    {}, {},
    {}, {},
    {}, {},
    {}, {},
    {}, {},
    {}, {},
    {}, {},
    {}, {},
    {}, {},
    {}, {},
    {}, {},
    {}, {},
    {}, {},
    {}, {},
    {}, {},
    {}, {},
    {}, {},
    {}, {},
    {}, {},
    {}, {},
    {}, {},
    {}, {},
    {}, {},
    {}, {},
    {}, {},
    {}, {},
    {}, {},
    {}, {},
    {}, {},
    {}, {},
    {}, {},
    {}, {},
    {}, {},
    {}, {},
    {}, {},
    {}, {},
    {}, {},
    {}, {},
    {}, {},
    {}, {},
    {}, {},
    {}, {},
    {}, {},
    {}, {},
    {}, {},
    {}, {},
    {}, {},
    {}, {},
    {}, {},
    {}, {},
    {}, {},
    {}, {},
    {}, {},
    {}, {},
    {}, {},
    {}, {},
    {}, {},
    {}, {},
    {}, {},
    {}, {},
    {}, {},

  % k = 2
    {}, {},
    {}, {},
    {}, {},
    {}, {},
    {}, {},
    {}, {},
    {}, {},
    {}, {},
    {}, {},
    {}, {},
    {}, {},
    {}, {},
    {}, {},
    {}, {},
    {}, {},
    {}, {},
    {}, {},
    {}, {},
    {}, {},
    {}, {},
    {}, {},
    {}, {},
    {}, {},
    {}, {},
    {}, {},
    {}, {},
    {}, {},
    {}, {},
    {}, {},
    {}, {},
    {}, {},
    {}, {},
    {}, {},
    {}, {},
    {}, {},
    {}, {},
    {}, {},
    {}, {},
    {}, {},
    {}, {},
    {}, {},
    {}, {},
    {}, {},
    {}, {},
    {}, {},
    {}, {},
    {}, {},
    {}, {},
    {}, {},
    {}, {},
    {}, {},
    {}, {},
    {}, {},
    {}, {},
    {}, {},
    {}, {},
    {}, {},
    {}, {},
    {}, {},
    {}, {},
    {}, {},
    {}, {},
    {}, {},
    {}, {},
    {}, {},
    {}, {},
    {}, {},
    {}, {},
    {}, {},
    {}, {},
    {}, {},
    {}, {},
    {}, {},
    {}, {},
    {}, {},
    {}, {},
    {}, {},
    {}, {},
    {}, {},
    {}, {},
    {}, {},
    {}, {},
    {}, {},
    {}, {},
    {}, {},
    {}, {},
    {}, {},
    {}, {},
    {}, {},
    {}, {},
    {}, {},
    {}, {},
    {}, {},
    {}, {},
    {}, {},
    {}, {},
    {}, {},
    {}, {},
    {}, {},
    {}, {},
    {}, {},
    {}, {},
    {}, {},
    {}, {},
    {}, {},
    {}, {},
    {}, {},
    {}, {},
    {}, {},
    {}, {},
    {}, {},
    {}, {},
    {}, {},
    {}, {},
    {}, {},
    {}, {},
    {}, {},
    {}, {},
    {}, {},
    {}, {},
    {}, {},
    {}, {},
    {}, {},
    {}, {},
    {}, {},
    {}, {},
    {}, {},
    {}, {},
    {}, {},
    {}, {},
    {}, {},
    {}, {},
    {}, {},
    {}, {},
    {}, {},
    {}, {},
    {}, {},
    {}, {},
    {}, {},
    {}, {},
    {}, {},
    {}, {},
    {}, {},
    {}, {},
    {}, {},
    {}, {},
    {}, {},
    {}, {},
    {}, {},
    {}, {},
    {}, {},
    {}, {},
    {}, {},
    {}, {},
    {}, {},
    {}, {},
    {}, {},
    {}, {},
    {}, {},
    {}, {},
    {}, {},
    {}, {},
    {}, {},
    {}, {},
    {}, {},
    {}, {},
    {}, {},
    {}, {},
    {}, {},
    {}, {},
    {}, {},
    {}, {},
    {}, {},
    {}, {},
    {}, {},
    {}, {},
    {}, {},
    {}, {},
    {}, {},
    {}, {},
    {}, {},
    {}, {},
    {}, {},
    {}, {},
    {}, {},
    {}, {},
    {}, {},
    {}, {},
    {}, {},
    {}, {},
    {}, {},
    {}, {},
    {}, {},
    {}, {},
    {}, {},
    {}, {},
    {}, {},
    {}, {},
    {}, {},
    {}, {},
    {}, {},
    {}, {},
    {}, {},
    {}, {},
    {}, {},
    {}, {},
    {}, {},
    {}, {},
    {}, {},
    {}, {},
    {}, {},
    {}, {},
    {}, {},
    {}, {},
    {}, {},
    {}, {},
    {}, {},
    {}, {},
    {}, {},
    {}, {},
    {}, {},
    {}, {},
    {}, {},
    {}, {},
    {}, {},
    {}, {},
    {}, {},
    {}, {},
    {}, {},
    {}, {},
    {}, {},
    {}, {},
    {}, {},
    {}, {},
    {}, {},
    {}, {},
    {}, {},
    {}, {},
    {}, {},
    {}, {},
    {}, {},
    {}, {},
    {}, {},
    {}, {},
    {}, {},
    {}, {},
    {}, {},
    {}, {},
    {}, {},
    {}, {},
    {}, {},
    {}, {},
    {}, {},
    {}, {},
    {}, {},
    {}, {},
    {}, {},
    {}, {},
    {}, {},
    {}, {},
    {}, {},
    {}, {},
    {}, {},
    {}, {},
    {}, {},
    {}, {},
    {}, {},
    {}, {},
    {}, {},
    {}, {},
    {}, {},
    {}, {},
    {}, {},
    {}, {},
    {}, {},
    {}, {},
    {}, {},
    {}, {},
    {}, {},
    {}, {},
    {}, {},
    {}, {},
    {}, {},
    {}, {},
    {}, {},
    {}, {},
    {}, {},
    {}, {},
    {}, {},
    {}, {},
    {}, {},
    {}, {},
    {}, {},
    {}, {},
    {}, {},
    {}, {},
    {}, {},
    {}, {},
    {}, {},
    {}, {},
    {}, {},
    {}, {},
    {}, {},
    {}, {},
    {}, {}
]);
